p edge 10 20
e 1 7
e 1 5
e 1 6
e 1 8
e 2 10
e 2 9
e 2 8
e 2 7
e 3 5
e 3 9
e 3 8
e 3 6
e 3 10
e 4 5
e 4 9
e 4 7
e 5 3
e 5 4
e 5 9
e 5 1
e 6 1
e 6 3
e 6 8
e 7 4
e 7 1
e 7 2
e 8 3
e 8 10
e 8 6
e 8 1
e 8 2
e 9 2
e 9 10
e 9 3
e 9 4
e 9 5
e 10 9
e 10 8
e 10 2
e 10 3
